
Gurobi 10.0.1 (linux64) logging started Sun Nov 26 17:25:31 2023

Set parameter LogFile to value "ArtificialInstance/ExperimentV2/S4T4K3/BaRo/gurobi91.txt"
Gurobi Optimizer version 10.0.1 build v10.0.1rc0 (linux64)

CPU model: AMD EPYC 7H12 64-Core Processor, instruction set [SSE2|AVX|AVX2]
Thread count: 128 physical cores, 128 logical processors, using up to 32 threads

Academic license 656792 - for non-commercial use only - registered to b.___@student.vu.nl
Optimize a model with 5049 rows, 7601 columns and 26484 nonzeros
Model fingerprint: 0xf3a4c18a
Variable types: 1 continuous, 7600 integer (7600 binary)
Coefficient statistics:
  Matrix range     [1e+00, 4e+01]
  Objective range  [1e+00, 2e+01]
  Bounds range     [1e+00, 1e+00]
  RHS range        [1e+00, 1e+00]
Found heuristic solution: objective 781.5892753
Presolve time: 0.04s
Presolved: 5049 rows, 7601 columns, 26484 nonzeros
Variable types: 1 continuous, 7600 integer (7600 binary)

Root relaxation: objective 5.382560e+01, 8510 iterations, 0.50 seconds (0.31 work units)

    Nodes    |    Current Node    |     Objective Bounds      |     Work
 Expl Unexpl |  Obj  Depth IntInf | Incumbent    BestBd   Gap | It/Node Time

     0     0   53.82560    0 1200  781.58928   53.82560  93.1%     -    0s
H    0     0                     359.5863802   53.82560  85.0%     -    0s
H    0     0                     105.5439583   53.82560  49.0%     -    0s
     0     0   59.71447    0 1531  105.54396   59.71447  43.4%     -    1s
     0     0   67.27838    0 1280  105.54396   67.27838  36.3%     -    1s
     0     0   67.38296    0 1391  105.54396   67.38296  36.2%     -    1s
     0     0   67.38296    0 1391  105.54396   67.38296  36.2%     -    1s
H    0     0                     101.4985734   69.99143  31.0%     -    2s
     0     0   69.99143    0 1566  101.49857   69.99143  31.0%     -    2s
     0     0   70.13442    0 1531  101.49857   70.13442  30.9%     -    2s
     0     0   70.13442    0 1533  101.49857   70.13442  30.9%     -    2s
     0     0   70.87315    0 1612  101.49857   70.87315  30.2%     -    2s
H    0     0                      98.5895756   70.87787  28.1%     -    2s
     0     0   70.87787    0 1630   98.58958   70.87787  28.1%     -    2s
H    0     0                      93.8949116   70.87787  24.5%     -    2s
     0     0   71.41408    0 1602   93.89491   71.41408  23.9%     -    2s
H    0     0                      88.2226375   71.41408  19.1%     -    3s
     0     0   71.50228    0 1669   88.22264   71.50228  19.0%     -    3s
     0     0   71.51487    0 1632   88.22264   71.51487  18.9%     -    3s
     0     0   71.51531    0 1670   88.22264   71.51531  18.9%     -    3s
     0     0   72.01608    0 1581   88.22264   72.01608  18.4%     -    3s
     0     0   72.17219    0 1674   88.22264   72.17219  18.2%     -    3s
     0     0   72.17355    0 1611   88.22264   72.17355  18.2%     -    3s
     0     0   72.45639    0 1682   88.22264   72.45639  17.9%     -    4s
     0     0   72.46867    0 1651   88.22264   72.46867  17.9%     -    4s
     0     0   72.46867    0 1654   88.22264   72.46867  17.9%     -    4s
     0     0   72.59343    0 1626   88.22264   72.59343  17.7%     -    4s
     0     0   72.61090    0 1665   88.22264   72.61090  17.7%     -    4s
     0     0   72.61272    0 1660   88.22264   72.61272  17.7%     -    4s
     0     0   72.75832    0 1624   88.22264   72.75832  17.5%     -    4s
     0     0   72.77983    0 1609   88.22264   72.77983  17.5%     -    5s
     0     0   72.78878    0 1641   88.22264   72.78878  17.5%     -    5s
     0     0   72.79100    0 1624   88.22264   72.79100  17.5%     -    5s
     0     0   72.81011    0 1588   88.22264   72.81011  17.5%     -    5s
     0     0   72.81064    0 1619   88.22264   72.81064  17.5%     -    5s
     0     0   72.81075    0 1588   88.22264   72.81075  17.5%     -    5s
     0     0   72.81075    0 1474   88.22264   72.81075  17.5%     -    5s
     0     2   72.81075    0 1474   88.22264   72.81075  17.5%     -    6s
H   31    64                      87.6431975   74.33436  15.2%  1709    8s
   227   222   77.37304    9 1460   87.64320   76.12638  13.1%  1308   10s
H  421   286                      87.5824320   76.12638  13.1%  1093   11s
H  423   286                      87.1849283   76.12638  12.7%  1100   11s
  1201   481   80.25038    8 1523   87.18493   76.15865  12.6%   827   15s
H 1756   589                      85.6649785   76.15865  11.1%   771   19s
  2093   529   79.55825    9 1355   85.66498   77.25298  9.82%   754   20s

Cutting planes:
  Gomory: 16
  Zero half: 481
  RLT: 301

Explored 3689 nodes (2445891 simplex iterations) in 24.06 seconds (25.37 work units)
Thread count was 32 (of 128 available processors)

Solution count 10: 85.665 87.1849 87.5824 ... 359.586

Optimal solution found (tolerance 1.00e-04)
Best objective 8.566497852711e+01, best bound 8.566497852711e+01, gap 0.0000%
